32	0

0	3	2	3	4
2	1	5
2	1	5
2	1	5
5	1	6
8	2	7	9
2	1	8
5	1	10
7	1	10
8	1	11
1	2	12	15
3	2	13	17
1	1	14
7	1	16
5	1	16
10	1	18
10	1	18
1	2	19	20
9	1	21
1	1	21
5	1	22
8	1	23
1	1	24
8	1	25
8	1	26
10	1	27
10	1	28
8	1	29
9	1	30
8	1	31
5	1	32
0	0
